24
10 17
10 18
10 13
10 3
10 8
10 11
10 21
10 12
10 2
17 1
17 20
17 13
17 18
17 3
17 22
17 19
17 15
7 12
7 22
7 21
7 18
7 2
7 5
7 1
7 4
7 23
12 13
12 18
12 14
12 19
12 9
12 16
12 5
15 20
15 8
15 14
15 3
15 0
15 6
15 21
15 9
20 18
20 21
20 6
20 5
20 22
20 3
20 8
1 0
1 14
1 23
1 4
1 18
1 22
1 8
13 23
13 6
13 16
13 19
13 4
13 3
18 19
18 9
18 23
19 4
19 22
19 2
19 3
19 6
5 8
5 11
5 14
5 3
5 9
5 22
8 22
8 2
8 11
8 3
4 0
4 16
4 21
4 11
4 9
0 14
0 21
0 2
0 9
0 16
0 23
2 6
2 11
2 23
2 16
6 23
6 16
6 14
6 21
9 14
9 11
9 22
14 11
14 16
11 21
11 16
3 23
23 16
21 22
